p cnf 52 172
-1 -5 0
-1 -10 0
-1 -16 0
-1 -22 0
-1 -27 0
-1 -38 0
-1 -49 0
-5 -10 0
-5 -16 0
-5 -22 0
-5 -27 0
-5 -38 0
-5 -49 0
-10 -16 0
-10 -22 0
-10 -27 0
-10 -38 0
-10 -49 0
-16 -22 0
-16 -27 0
-16 -38 0
-16 -49 0
-22 -27 0
-22 -38 0
-22 -49 0
-27 -38 0
-27 -49 0
-38 -49 0
-6 -11 0
-6 -17 0
-6 -23 0
-6 -33 0
-6 -39 0
-6 -44 0
-11 -17 0
-11 -23 0
-11 -33 0
-11 -39 0
-11 -44 0
-17 -23 0
-17 -33 0
-17 -39 0
-17 -44 0
-23 -33 0
-23 -39 0
-23 -44 0
-33 -39 0
-33 -44 0
-39 -44 0
-2 -12 0
-2 -18 0
-2 -28 0
-2 -34 0
-2 -40 0
-2 -45 0
-12 -18 0
-12 -28 0
-12 -34 0
-12 -40 0
-12 -45 0
-18 -28 0
-18 -34 0
-18 -40 0
-18 -45 0
-28 -34 0
-28 -40 0
-28 -45 0
-34 -40 0
-34 -45 0
-40 -45 0
-7 -13 0
-7 -19 0
-7 -24 0
-7 -29 0
-7 -35 0
-7 -41 0
-7 -50 0
-13 -19 0
-13 -24 0
-13 -29 0
-13 -35 0
-13 -41 0
-13 -50 0
-19 -24 0
-19 -29 0
-19 -35 0
-19 -41 0
-19 -50 0
-24 -29 0
-24 -35 0
-24 -41 0
-24 -50 0
-29 -35 0
-29 -41 0
-29 -50 0
-35 -41 0
-35 -50 0
-41 -50 0
-3 -8 0
-3 -14 0
-3 -20 0
-3 -30 0
-3 -42 0
-3 -46 0
-3 -51 0
-8 -14 0
-8 -20 0
-8 -30 0
-8 -42 0
-8 -46 0
-8 -51 0
-14 -20 0
-14 -30 0
-14 -42 0
-14 -46 0
-14 -51 0
-20 -30 0
-20 -42 0
-20 -46 0
-20 -51 0
-30 -42 0
-30 -46 0
-30 -51 0
-42 -46 0
-42 -51 0
-46 -51 0
-15 -25 0
-15 -31 0
-15 -36 0
-15 -47 0
-25 -31 0
-25 -36 0
-25 -47 0
-31 -36 0
-31 -47 0
-36 -47 0
-4 -9 0
-4 -21 0
-4 -26 0
-4 -32 0
-4 -37 0
-4 -43 0
-4 -48 0
-4 -52 0
-9 -21 0
-9 -26 0
-9 -32 0
-9 -37 0
-9 -43 0
-9 -48 0
-9 -52 0
-21 -26 0
-21 -32 0
-21 -37 0
-21 -43 0
-21 -48 0
-21 -52 0
-26 -32 0
-26 -37 0
-26 -43 0
-26 -48 0
-26 -52 0
-32 -37 0
-32 -43 0
-32 -48 0
-32 -52 0
-37 -43 0
-37 -48 0
-37 -52 0
-43 -48 0
-43 -52 0
-48 -52 0
